Minimize
  6x5_6 + 7x8_7 + 2x3_2 + 2x6_2 + 7x6_7 + 3x9_3 + 5x5_5 + 2x2_2 + 5x9_5 + 2x4_2 + 6x9_6 + 1x7_1 + 4x1_4 + 2x8_2 + 4x9_4 + 7x5_7 + 1x0_1 + 4x7_4 + 7x1_7 + 5x3_5 + 7x2_7 + 2x7_2 + 4x6_4 + 6x7_6 + 6x4_6 + 3x4_3 + 3x0_3 + 3x8_3 + 2x9_2 + 7x4_7 + 5x7_5 + 3x2_3 + 5x0_5 + 7x3_7 + 1x8_1 + 6x1_6 + 3x7_3 + 5x2_5 + 3x6_3 + 2x0_2 + 5x4_5 + 3x5_3 + 6x0_6 + 4x8_4 + 3x3_3 + 4x2_4 + 4x0_4 + 5x1_5 + 6x3_6 + 6x8_6 + 1x6_1 + 1x5_1 + 7x9_7 + 7x0_7 + 4x3_4 + 1x4_1 + 7x7_7 + 1x9_1 + 2x1_2 + 6x6_6 + 5x8_5 + 1x3_1 + 1x2_1 + 3x1_3 + 4x4_4 + 4x5_4 + 6x2_6 + 5x6_5 + 1x1_1 + 2x5_2
Subject to
  c0: x0_1 + x0_2 + x0_3 + x0_4 + x0_5 + x0_6 + x0_7 = 1
  c1: x4_1 + x4_2 + x4_3 + x4_4 + x4_5 + x4_6 + x4_7 = 1
  c2: x6_1 + x6_2 + x6_3 + x6_4 + x6_5 + x6_6 + x6_7 = 1
  c3: x8_1 + x8_2 + x8_3 + x8_4 + x8_5 + x8_6 + x8_7 = 1
  c4: x9_1 + x9_2 + x9_3 + x9_4 + x9_5 + x9_6 + x9_7 = 1
  c5: x5_1 + x5_2 + x5_3 + x5_4 + x5_5 + x5_6 + x5_7 = 1
  c6: x7_1 + x7_2 + x7_3 + x7_4 + x7_5 + x7_6 + x7_7 = 1
  c7: x1_1 + x1_2 + x1_3 + x1_4 + x1_5 + x1_6 + x1_7 = 1
  c8: x3_1 + x3_2 + x3_3 + x3_4 + x3_5 + x3_6 + x3_7 = 1
  c9: x2_1 + x2_2 + x2_3 + x2_4 + x2_5 + x2_6 + x2_7 = 1
  e0: 1x4_1 + 2x4_2 + 3x4_3 + 4x4_4 + 5x4_5 + 6x4_6 + 7x4_7 - 1x0_1 - 2x0_2 - 3x0_3 - 4x0_4 - 5x0_5 - 6x0_6 - 7x0_7 >= 1
  e1: 1x6_1 + 2x6_2 + 3x6_3 + 4x6_4 + 5x6_5 + 6x6_6 + 7x6_7 - 1x0_1 - 2x0_2 - 3x0_3 - 4x0_4 - 5x0_5 - 6x0_6 - 7x0_7 >= 1
  e2: 1x8_1 + 2x8_2 + 3x8_3 + 4x8_4 + 5x8_5 + 6x8_6 + 7x8_7 - 1x0_1 - 2x0_2 - 3x0_3 - 4x0_4 - 5x0_5 - 6x0_6 - 7x0_7 >= 1
  e3: 1x9_1 + 2x9_2 + 3x9_3 + 4x9_4 + 5x9_5 + 6x9_6 + 7x9_7 - 1x0_1 - 2x0_2 - 3x0_3 - 4x0_4 - 5x0_5 - 6x0_6 - 7x0_7 >= 1
  e4: 1x5_1 + 2x5_2 + 3x5_3 + 4x5_4 + 5x5_5 + 6x5_6 + 7x5_7 - 1x4_1 - 2x4_2 - 3x4_3 - 4x4_4 - 5x4_5 - 6x4_6 - 7x4_7 >= 1
  e5: 1x7_1 + 2x7_2 + 3x7_3 + 4x7_4 + 5x7_5 + 6x7_6 + 7x7_7 - 1x4_1 - 2x4_2 - 3x4_3 - 4x4_4 - 5x4_5 - 6x4_6 - 7x4_7 >= 1
  e6: 1x8_1 + 2x8_2 + 3x8_3 + 4x8_4 + 5x8_5 + 6x8_6 + 7x8_7 - 1x4_1 - 2x4_2 - 3x4_3 - 4x4_4 - 5x4_5 - 6x4_6 - 7x4_7 >= 1
  e7: 1x9_1 + 2x9_2 + 3x9_3 + 4x9_4 + 5x9_5 + 6x9_6 + 7x9_7 - 1x4_1 - 2x4_2 - 3x4_3 - 4x4_4 - 5x4_5 - 6x4_6 - 7x4_7 >= 1
  e8: 1x8_1 + 2x8_2 + 3x8_3 + 4x8_4 + 5x8_5 + 6x8_6 + 7x8_7 - 1x6_1 - 2x6_2 - 3x6_3 - 4x6_4 - 5x6_5 - 6x6_6 - 7x6_7 >= 1
  e9: 1x9_1 + 2x9_2 + 3x9_3 + 4x9_4 + 5x9_5 + 6x9_6 + 7x9_7 - 1x6_1 - 2x6_2 - 3x6_3 - 4x6_4 - 5x6_5 - 6x6_6 - 7x6_7 >= 1
  e10: 1x9_1 + 2x9_2 + 3x9_3 + 4x9_4 + 5x9_5 + 6x9_6 + 7x9_7 - 1x8_1 - 2x8_2 - 3x8_3 - 4x8_4 - 5x8_5 - 6x8_6 - 7x8_7 >= 1
  e11: 1x6_1 + 2x6_2 + 3x6_3 + 4x6_4 + 5x6_5 + 6x6_6 + 7x6_7 - 1x5_1 - 2x5_2 - 3x5_3 - 4x5_4 - 5x5_5 - 6x5_6 - 7x5_7 >= 1
  e12: 1x7_1 + 2x7_2 + 3x7_3 + 4x7_4 + 5x7_5 + 6x7_6 + 7x7_7 - 1x5_1 - 2x5_2 - 3x5_3 - 4x5_4 - 5x5_5 - 6x5_6 - 7x5_7 >= 1
  e13: 1x8_1 + 2x8_2 + 3x8_3 + 4x8_4 + 5x8_5 + 6x8_6 + 7x8_7 - 1x5_1 - 2x5_2 - 3x5_3 - 4x5_4 - 5x5_5 - 6x5_6 - 7x5_7 >= 1
  e14: 1x9_1 + 2x9_2 + 3x9_3 + 4x9_4 + 5x9_5 + 6x9_6 + 7x9_7 - 1x5_1 - 2x5_2 - 3x5_3 - 4x5_4 - 5x5_5 - 6x5_6 - 7x5_7 >= 1
  e15: 1x8_1 + 2x8_2 + 3x8_3 + 4x8_4 + 5x8_5 + 6x8_6 + 7x8_7 - 1x7_1 - 2x7_2 - 3x7_3 - 4x7_4 - 5x7_5 - 6x7_6 - 7x7_7 >= 1
  e16: 1x9_1 + 2x9_2 + 3x9_3 + 4x9_4 + 5x9_5 + 6x9_6 + 7x9_7 - 1x7_1 - 2x7_2 - 3x7_3 - 4x7_4 - 5x7_5 - 6x7_6 - 7x7_7 >= 1
  e17: 1x3_1 + 2x3_2 + 3x3_3 + 4x3_4 + 5x3_5 + 6x3_6 + 7x3_7 - 1x1_1 - 2x1_2 - 3x1_3 - 4x1_4 - 5x1_5 - 6x1_6 - 7x1_7 >= 1
  e18: 1x7_1 + 2x7_2 + 3x7_3 + 4x7_4 + 5x7_5 + 6x7_6 + 7x7_7 - 1x1_1 - 2x1_2 - 3x1_3 - 4x1_4 - 5x1_5 - 6x1_6 - 7x1_7 >= 1
  e19: 1x8_1 + 2x8_2 + 3x8_3 + 4x8_4 + 5x8_5 + 6x8_6 + 7x8_7 - 1x1_1 - 2x1_2 - 3x1_3 - 4x1_4 - 5x1_5 - 6x1_6 - 7x1_7 >= 1
  e20: 1x9_1 + 2x9_2 + 3x9_3 + 4x9_4 + 5x9_5 + 6x9_6 + 7x9_7 - 1x1_1 - 2x1_2 - 3x1_3 - 4x1_4 - 5x1_5 - 6x1_6 - 7x1_7 >= 1
  e21: 1x4_1 + 2x4_2 + 3x4_3 + 4x4_4 + 5x4_5 + 6x4_6 + 7x4_7 - 1x3_1 - 2x3_2 - 3x3_3 - 4x3_4 - 5x3_5 - 6x3_6 - 7x3_7 >= 1
  e22: 1x5_1 + 2x5_2 + 3x5_3 + 4x5_4 + 5x5_5 + 6x5_6 + 7x5_7 - 1x3_1 - 2x3_2 - 3x3_3 - 4x3_4 - 5x3_5 - 6x3_6 - 7x3_7 >= 1
  e23: 1x6_1 + 2x6_2 + 3x6_3 + 4x6_4 + 5x6_5 + 6x6_6 + 7x6_7 - 1x3_1 - 2x3_2 - 3x3_3 - 4x3_4 - 5x3_5 - 6x3_6 - 7x3_7 >= 1
  e24: 1x7_1 + 2x7_2 + 3x7_3 + 4x7_4 + 5x7_5 + 6x7_6 + 7x7_7 - 1x3_1 - 2x3_2 - 3x3_3 - 4x3_4 - 5x3_5 - 6x3_6 - 7x3_7 >= 1
  e25: 1x9_1 + 2x9_2 + 3x9_3 + 4x9_4 + 5x9_5 + 6x9_6 + 7x9_7 - 1x3_1 - 2x3_2 - 3x3_3 - 4x3_4 - 5x3_5 - 6x3_6 - 7x3_7 >= 1
  e26: 1x4_1 + 2x4_2 + 3x4_3 + 4x4_4 + 5x4_5 + 6x4_6 + 7x4_7 - 1x2_1 - 2x2_2 - 3x2_3 - 4x2_4 - 5x2_5 - 6x2_6 - 7x2_7 >= 1
  e27: 1x5_1 + 2x5_2 + 3x5_3 + 4x5_4 + 5x5_5 + 6x5_6 + 7x5_7 - 1x2_1 - 2x2_2 - 3x2_3 - 4x2_4 - 5x2_5 - 6x2_6 - 7x2_7 >= 1
  e28: 1x6_1 + 2x6_2 + 3x6_3 + 4x6_4 + 5x6_5 + 6x6_6 + 7x6_7 - 1x2_1 - 2x2_2 - 3x2_3 - 4x2_4 - 5x2_5 - 6x2_6 - 7x2_7 >= 1
  e29: 1x7_1 + 2x7_2 + 3x7_3 + 4x7_4 + 5x7_5 + 6x7_6 + 7x7_7 - 1x2_1 - 2x2_2 - 3x2_3 - 4x2_4 - 5x2_5 - 6x2_6 - 7x2_7 >= 1
  f0: x5_6 >= 0
  f1: x8_7 >= 0
  f2: x3_2 >= 0
  f3: x6_2 >= 0
  f4: x6_7 >= 0
  f5: x9_3 >= 0
  f6: x5_5 >= 0
  f7: x2_2 >= 0
  f8: x9_5 >= 0
  f9: x4_2 >= 0
  f10: x9_6 >= 0
  f11: x7_1 >= 0
  f12: x1_4 >= 0
  f13: x8_2 >= 0
  f14: x9_4 >= 0
  f15: x5_7 >= 0
  f16: x0_1 >= 0
  f17: x7_4 >= 0
  f18: x1_7 >= 0
  f19: x3_5 >= 0
  f20: x2_7 >= 0
  f21: x7_2 >= 0
  f22: x6_4 >= 0
  f23: x7_6 >= 0
  f24: x4_6 >= 0
  f25: x4_3 >= 0
  f26: x0_3 >= 0
  f27: x8_3 >= 0
  f28: x9_2 >= 0
  f29: x4_7 >= 0
  f30: x7_5 >= 0
  f31: x2_3 >= 0
  f32: x0_5 >= 0
  f33: x3_7 >= 0
  f34: x8_1 >= 0
  f35: x1_6 >= 0
  f36: x7_3 >= 0
  f37: x2_5 >= 0
  f38: x6_3 >= 0
  f39: x0_2 >= 0
  f40: x4_5 >= 0
  f41: x5_3 >= 0
  f42: x0_6 >= 0
  f43: x8_4 >= 0
  f44: x3_3 >= 0
  f45: x2_4 >= 0
  f46: x0_4 >= 0
  f47: x1_5 >= 0
  f48: x3_6 >= 0
  f49: x8_6 >= 0
  f50: x6_1 >= 0
  f51: x5_1 >= 0
  f52: x9_7 >= 0
  f53: x0_7 >= 0
  f54: x3_4 >= 0
  f55: x4_1 >= 0
  f56: x7_7 >= 0
  f57: x9_1 >= 0
  f58: x1_2 >= 0
  f59: x6_6 >= 0
  f60: x8_5 >= 0
  f61: x3_1 >= 0
  f62: x2_1 >= 0
  f63: x1_3 >= 0
  f64: x4_4 >= 0
  f65: x5_4 >= 0
  f66: x2_6 >= 0
  f67: x6_5 >= 0
  f68: x1_1 >= 0
  f69: x5_2 >= 0
Integer
	x5_6 x8_7 x3_2 x6_2 x6_7 x9_3 x5_5 x2_2 x9_5 x4_2 x9_6 x7_1 x1_4 x8_2 x9_4 x5_7 x0_1 x7_4 x1_7 x3_5 x2_7 x7_2 x6_4 x7_6 x4_6 x4_3 x0_3 x8_3 x9_2 x4_7 x7_5 x2_3 x0_5 x3_7 x8_1 x1_6 x7_3 x2_5 x6_3 x0_2 x4_5 x5_3 x0_6 x8_4 x3_3 x2_4 x0_4 x1_5 x3_6 x8_6 x6_1 x5_1 x9_7 x0_7 x3_4 x4_1 x7_7 x9_1 x1_2 x6_6 x8_5 x3_1 x2_1 x1_3 x4_4 x5_4 x2_6 x6_5 x1_1 x5_2 
